SMTInterpolTest/proofchecker/uflia_sat01.smt2
(set-option :produce-proofs true)
(set-logic UFLIA)
(declare-fun f (Int) Int)
(assert (forall ((x Int) (y Int)) (=> (<= x y) (<= (f x) (f y)))))
(assert (= (f 0) 0))
(assert (= (f 100) 1))
(check-sat)
(get-model-proof)
